60   1770
119
68 51 74 41 83 82 59 109 40 68 82 84 41 61 40 78 59 30 97 37 46 103 94 95 34 81 40 112 84 45 40 68 91 111 113 30 91 50 40 93 50 72 42 69 80 101 61 70 60 102 38 105 88 108 115 83 65 47 65 1 2 289
1 3 168
1 4 35
1 5 207
1 6 230
1 7 293
1 8 256
1 9 224
1 10 258
1 11 270
1 12 148
1 13 218
1 14 119
1 15 292
1 16 47
1 17 129
1 18 51
1 19 17
1 20 14
1 21 264
1 22 118
1 23 85
1 24 111
1 25 297
1 26 55
1 27 74
1 28 266
1 29 62
1 30 86
1 31 152
1 32 137
1 33 26
1 34 273
1 35 114
1 36 250
1 37 186
1 38 97
1 39 36
1 40 211
1 41 41
1 42 98
1 43 231
1 44 42
1 45 56
1 46 274
1 47 80
1 48 186
1 49 32
1 50 130
1 51 31
1 52 241
1 53 204
1 54 239
1 55 259
1 56 22
1 57 131
1 58 98
1 59 252
1 60 291
2 3 45
2 4 40
2 5 27
2 6 234
2 7 214
2 8 253
2 9 144
2 10 44
2 11 95
2 12 58
2 13 142
2 14 200
2 15 66
2 16 38
2 17 137
2 18 215
2 19 197
2 20 181
2 21 284
2 22 252
2 23 21
2 24 219
2 25 148
2 26 121
2 27 274
2 28 132
2 29 276
2 30 142
2 31 300
2 32 273
2 33 86
2 34 178
2 35 282
2 36 63
2 37 246
2 38 278
2 39 271
2 40 218
2 41 133
2 42 278
2 43 98
2 44 210
2 45 154
2 46 251
2 47 73
2 48 130
2 49 54
2 50 293
2 51 172
2 52 281
2 53 112
2 54 281
2 55 72
2 56 138
2 57 30
2 58 266
2 59 46
2 60 138
3 4 171
3 5 79
3 6 43
3 7 269
3 8 46
3 9 281
3 10 23
3 11 148
3 12 296
3 13 273
3 14 243
3 15 259
3 16 187
3 17 89
3 18 285
3 19 254
3 20 121
3 21 270
3 22 162
3 23 51
3 24 251
3 25 43
3 26 210
3 27 19
3 28 241
3 29 80
3 30 232
3 31 213
3 32 36
3 33 242
3 34 208
3 35 300
3 36 175
3 37 57
3 38 141
3 39 46
3 40 64
3 41 147
3 42 133
3 43 223
3 44 27
3 45 197
3 46 142
3 47 186
3 48 286
3 49 214
3 50 113
3 51 26
3 52 24
3 53 119
3 54 211
3 55 138
3 56 280
3 57 174
3 58 112
3 59 117
3 60 295
4 5 287
4 6 116
4 7 31
4 8 282
4 9 220
4 10 261
4 11 240
4 12 271
4 13 132
4 14 255
4 15 240
4 16 42
4 17 239
4 18 254
4 19 216
4 20 151
4 21 279
4 22 183
4 23 250
4 24 64
4 25 131
4 26 41
4 27 104
4 28 97
4 29 221
4 30 200
4 31 50
4 32 200
4 33 27
4 34 182
4 35 199
4 36 279
4 37 112
4 38 240
4 39 55
4 40 216
4 41 284
4 42 232
4 43 46
4 44 63
4 45 103
4 46 272
4 47 71
4 48 277
4 49 119
4 50 11
4 51 178
4 52 258
4 53 270
4 54 210
4 55 137
4 56 188
4 57 30
4 58 106
4 59 56
4 60 118
5 6 92
5 7 134
5 8 116
5 9 124
5 10 229
5 11 212
5 12 75
5 13 278
5 14 163
5 15 202
5 16 21
5 17 20
5 18 155
5 19 100
5 20 207
5 21 202
5 22 90
5 23 191
5 24 65
5 25 218
5 26 123
5 27 141
5 28 63
5 29 286
5 30 183
5 31 120
5 32 26
5 33 217
5 34 274
5 35 165
5 36 127
5 37 122
5 38 202
5 39 297
5 40 102
5 41 139
5 42 247
5 43 58
5 44 10
5 45 133
5 46 76
5 47 147
5 48 243
5 49 84
5 50 293
5 51 279
5 52 243
5 53 61
5 54 212
5 55 296
5 56 104
5 57 228
5 58 127
5 59 151
5 60 217
6 7 234
6 8 24
6 9 156
6 10 114
6 11 22
6 12 140
6 13 64
6 14 243
6 15 300
6 16 129
6 17 193
6 18 72
6 19 12
6 20 90
6 21 91
6 22 214
6 23 29
6 24 290
6 25 73
6 26 29
6 27 282
6 28 163
6 29 164
6 30 130
6 31 57
6 32 203
6 33 260
6 34 270
6 35 288
6 36 247
6 37 128
6 38 42
6 39 154
6 40 85
6 41 108
6 42 177
6 43 71
6 44 29
6 45 292
6 46 33
6 47 236
6 48 162
6 49 151
6 50 103
6 51 141
6 52 293
6 53 214
6 54 240
6 55 140
6 56 289
6 57 62
6 58 147
6 59 163
6 60 283
7 8 210
7 9 52
7 10 156
7 11 164
7 12 146
7 13 157
7 14 146
7 15 15
7 16 34
7 17 173
7 18 269
7 19 267
7 20 178
7 21 141
7 22 172
7 23 246
7 24 76
7 25 34
7 26 151
7 27 67
7 28 143
7 29 160
7 30 16
7 31 97
7 32 103
7 33 159
7 34 22
7 35 254
7 36 294
7 37 12
7 38 105
7 39 131
7 40 252
7 41 169
7 42 166
7 43 60
7 44 171
7 45 119
7 46 154
7 47 77
7 48 84
7 49 119
7 50 113
7 51 155
7 52 255
7 53 95
7 54 294
7 55 78
7 56 69
7 57 125
7 58 168
7 59 10
7 60 300
8 9 143
8 10 159
8 11 230
8 12 200
8 13 62
8 14 211
8 15 146
8 16 226
8 17 208
8 18 255
8 19 242
8 20 173
8 21 293
8 22 86
8 23 267
8 24 116
8 25 14
8 26 186
8 27 159
8 28 109
8 29 184
8 30 172
8 31 74
8 32 21
8 33 235
8 34 178
8 35 114
8 36 241
8 37 246
8 38 261
8 39 206
8 40 292
8 41 40
8 42 19
8 43 223
8 44 163
8 45 243
8 46 287
8 47 245
8 48 228
8 49 165
8 50 173
8 51 289
8 52 33
8 53 113
8 54 244
8 55 284
8 56 286
8 57 119
8 58 38
8 59 154
8 60 23
9 10 101
9 11 197
9 12 148
9 13 293
9 14 286
9 15 171
9 16 78
9 17 168
9 18 237
9 19 49
9 20 43
9 21 271
9 22 227
9 23 210
9 24 203
9 25 24
9 26 230
9 27 172
9 28 220
9 29 63
9 30 64
9 31 85
9 32 14
9 33 133
9 34 108
9 35 197
9 36 139
9 37 145
9 38 96
9 39 152
9 40 93
9 41 98
9 42 242
9 43 91
9 44 80
9 45 105
9 46 146
9 47 176
9 48 269
9 49 156
9 50 128
9 51 55
9 52 264
9 53 56
9 54 298
9 55 199
9 56 149
9 57 212
9 58 134
9 59 264
9 60 49
10 11 237
10 12 75
10 13 282
10 14 211
10 15 299
10 16 249
10 17 295
10 18 71
10 19 237
10 20 141
10 21 79
10 22 95
10 23 110
10 24 209
10 25 214
10 26 50
10 27 238
10 28 283
10 29 241
10 30 253
10 31 166
10 32 13
10 33 100
10 34 153
10 35 114
10 36 135
10 37 49
10 38 264
10 39 94
10 40 169
10 41 292
10 42 188
10 43 90
10 44 149
10 45 266
10 46 176
10 47 254
10 48 116
10 49 138
10 50 289
10 51 275
10 52 130
10 53 256
10 54 27
10 55 48
10 56 53
10 57 134
10 58 148
10 59 231
10 60 142
11 12 72
11 13 274
11 14 234
11 15 161
11 16 28
11 17 47
11 18 221
11 19 148
11 20 47
11 21 163
11 22 245
11 23 300
11 24 211
11 25 136
11 26 183
11 27 23
11 28 171
11 29 236
11 30 16
11 31 296
11 32 174
11 33 254
11 34 52
11 35 205
11 36 225
11 37 200
11 38 269
11 39 112
11 40 222
11 41 167
11 42 186
11 43 42
11 44 13
11 45 133
11 46 286
11 47 147
11 48 90
11 49 51
11 50 23
11 51 50
11 52 155
11 53 113
11 54 105
11 55 56
11 56 161
11 57 74
11 58 24
11 59 271
11 60 32
12 13 76
12 14 108
12 15 195
12 16 46
12 17 124
12 18 45
12 19 132
12 20 134
12 21 101
12 22 209
12 23 156
12 24 174
12 25 196
12 26 150
12 27 155
12 28 205
12 29 90
12 30 151
12 31 35
12 32 84
12 33 186
12 34 118
12 35 222
12 36 19
12 37 283
12 38 61
12 39 262
12 40 122
12 41 192
12 42 43
12 43 250
12 44 137
12 45 276
12 46 258
12 47 151
12 48 257
12 49 101
12 50 171
12 51 87
12 52 219
12 53 63
12 54 184
12 55 267
12 56 171
12 57 82
12 58 57
12 59 162
12 60 281
13 14 227
13 15 238
13 16 61
13 17 107
13 18 168
13 19 234
13 20 196
13 21 73
13 22 26
13 23 56
13 24 292
13 25 140
13 26 27
13 27 185
13 28 163
13 29 239
13 30 70
13 31 65
13 32 252
13 33 54
13 34 284
13 35 259
13 36 54
13 37 162
13 38 168
13 39 162
13 40 225
13 41 165
13 42 175
13 43 66
13 44 80
13 45 86
13 46 19
13 47 207
13 48 144
13 49 264
13 50 58
13 51 176
13 52 241
13 53 135
13 54 250
13 55 48
13 56 271
13 57 239
13 58 202
13 59 181
13 60 281
14 15 154
14 16 149
14 17 171
14 18 76
14 19 264
14 20 179
14 21 22
14 22 100
14 23 123
14 24 300
14 25 86
14 26 21
14 27 257
14 28 160
14 29 257
14 30 199
14 31 137
14 32 118
14 33 55
14 34 190
14 35 207
14 36 196
14 37 237
14 38 218
14 39 20
14 40 45
14 41 92
14 42 300
14 43 33
14 44 203
14 45 109
14 46 131
14 47 199
14 48 39
14 49 162
14 50 209
14 51 175
14 52 241
14 53 92
14 54 14
14 55 232
14 56 214
14 57 142
14 58 217
14 59 118
14 60 54
15 16 176
15 17 226
15 18 45
15 19 299
15 20 210
15 21 95
15 22 118
15 23 10
15 24 31
15 25 82
15 26 44
15 27 298
15 28 52
15 29 223
15 30 292
15 31 53
15 32 63
15 33 21
15 34 200
15 35 149
15 36 273
15 37 76
15 38 104
15 39 177
15 40 68
15 41 10
15 42 106
15 43 221
15 44 15
15 45 243
15 46 244
15 47 120
15 48 70
15 49 257
15 50 266
15 51 265
15 52 268
15 53 285
15 54 153
15 55 225
15 56 189
15 57 27
15 58 17
15 59 90
15 60 261
16 17 12
16 18 280
16 19 114
16 20 159
16 21 55
16 22 267
16 23 164
16 24 36
16 25 133
16 26 217
16 27 217
16 28 78
16 29 57
16 30 284
16 31 172
16 32 10
16 33 32
16 34 184
16 35 108
16 36 116
16 37 11
16 38 31
16 39 171
16 40 179
16 41 130
16 42 121
16 43 231
16 44 211
16 45 253
16 46 275
16 47 62
16 48 130
16 49 205
16 50 27
16 51 224
16 52 202
16 53 212
16 54 186
16 55 128
16 56 242
16 57 249
16 58 162
16 59 118
16 60 242
17 18 12
17 19 100
17 20 140
17 21 236
17 22 92
17 23 182
17 24 21
17 25 255
17 26 233
17 27 154
17 28 243
17 29 116
17 30 108
17 31 211
17 32 177
17 33 157
17 34 223
17 35 240
17 36 59
17 37 269
17 38 55
17 39 14
17 40 86
17 41 10
17 42 160
17 43 41
17 44 291
17 45 135
17 46 79
17 47 161
17 48 46
17 49 129
17 50 20
17 51 269
17 52 34
17 53 95
17 54 257
17 55 75
17 56 251
17 57 146
17 58 149
17 59 28
17 60 232
18 19 78
18 20 259
18 21 175
18 22 188
18 23 20
18 24 64
18 25 180
18 26 259
18 27 175
18 28 282
18 29 116
18 30 36
18 31 289
18 32 169
18 33 139
18 34 107
18 35 93
18 36 233
18 37 29
18 38 289
18 39 95
18 40 292
18 41 225
18 42 283
18 43 18
18 44 264
18 45 54
18 46 83
18 47 151
18 48 225
18 49 70
18 50 21
18 51 196
18 52 217
18 53 26
18 54 67
18 55 123
18 56 264
18 57 222
18 58 159
18 59 62
18 60 244
19 20 98
19 21 50
19 22 294
19 23 275
19 24 125
19 25 199
19 26 260
19 27 116
19 28 41
19 29 246
19 30 42
19 31 84
19 32 15
19 33 41
19 34 135
19 35 170
19 36 264
19 37 80
19 38 270
19 39 158
19 40 89
19 41 15
19 42 179
19 43 166
19 44 234
19 45 221
19 46 285
19 47 291
19 48 241
19 49 73
19 50 31
19 51 258
19 52 187
19 53 208
19 54 113
19 55 168
19 56 159
19 57 54
19 58 22
19 59 248
19 60 299
20 21 227
20 22 37
20 23 150
20 24 236
20 25 58
20 26 74
20 27 244
20 28 147
20 29 289
20 30 223
20 31 295
20 32 87
20 33 46
20 34 280
20 35 92
20 36 91
20 37 97
20 38 164
20 39 261
20 40 20
20 41 134
20 42 85
20 43 220
20 44 75
20 45 117
20 46 268
20 47 77
20 48 138
20 49 152
20 50 224
20 51 277
20 52 120
20 53 90
20 54 49
20 55 176
20 56 241
20 57 189
20 58 179
20 59 241
20 60 215
21 22 133
21 23 12
21 24 132
21 25 24
21 26 19
21 27 268
21 28 268
21 29 30
21 30 101
21 31 123
21 32 185
21 33 172
21 34 240
21 35 205
21 36 183
21 37 67
21 38 82
21 39 162
21 40 153
21 41 201
21 42 131
21 43 248
21 44 211
21 45 265
21 46 230
21 47 202
21 48 83
21 49 253
21 50 50
21 51 266
21 52 122
21 53 263
21 54 181
21 55 77
21 56 276
21 57 39
21 58 92
21 59 244
21 60 16
22 23 275
22 24 134
22 25 232
22 26 99
22 27 119
22 28 39
22 29 100
22 30 214
22 31 56
22 32 239
22 33 183
22 34 137
22 35 20
22 36 209
22 37 249
22 38 69
22 39 184
22 40 248
22 41 58
22 42 30
22 43 75
22 44 230
22 45 24
22 46 182
22 47 57
22 48 157
22 49 261
22 50 162
22 51 80
22 52 121
22 53 155
22 54 251
22 55 206
22 56 45
22 57 238
22 58 147
22 59 193
22 60 252
23 24 24
23 25 195
23 26 30
23 27 153
23 28 85
23 29 90
23 30 258
23 31 208
23 32 62
23 33 46
23 34 263
23 35 265
23 36 222
23 37 157
23 38 218
23 39 118
23 40 154
23 41 218
23 42 210
23 43 168
23 44 157
23 45 124
23 46 295
23 47 35
23 48 173
23 49 281
23 50 255
23 51 130
23 52 150
23 53 39
23 54 115
23 55 213
23 56 254
23 57 77
23 58 127
23 59 118
23 60 159
24 25 271
24 26 85
24 27 21
24 28 161
24 29 223
24 30 147
24 31 222
24 32 39
24 33 297
24 34 125
24 35 245
24 36 80
24 37 169
24 38 262
24 39 300
24 40 174
24 41 237
24 42 258
24 43 36
24 44 205
24 45 46
24 46 85
24 47 215
24 48 189
24 49 58
24 50 63
24 51 67
24 52 234
24 53 106
24 54 14
24 55 107
24 56 133
24 57 204
24 58 63
24 59 232
24 60 105
25 26 235
25 27 123
25 28 201
25 29 107
25 30 101
25 31 16
25 32 162
25 33 114
25 34 193
25 35 106
25 36 51
25 37 124
25 38 108
25 39 48
25 40 31
25 41 196
25 42 31
25 43 270
25 44 219
25 45 38
25 46 280
25 47 192
25 48 281
25 49 172
25 50 122
25 51 244
25 52 34
25 53 10
25 54 253
25 55 223
25 56 230
25 57 31
25 58 128
25 59 92
25 60 95
26 27 62
26 28 252
26 29 295
26 30 76
26 31 72
26 32 213
26 33 219
26 34 255
26 35 51
26 36 252
26 37 285
26 38 20
26 39 34
26 40 44
26 41 71
26 42 115
26 43 172
26 44 155
26 45 119
26 46 114
26 47 245
26 48 100
26 49 45
26 50 191
26 51 120
26 52 91
26 53 130
26 54 33
26 55 237
26 56 143
26 57 295
26 58 252
26 59 50
26 60 50
27 28 92
27 29 235
27 30 226
27 31 100
27 32 34
27 33 73
27 34 124
27 35 96
27 36 140
27 37 75
27 38 60
27 39 84
27 40 119
27 41 25
27 42 280
27 43 209
27 44 217
27 45 171
27 46 170
27 47 287
27 48 213
27 49 234
27 50 172
27 51 62
27 52 70
27 53 286
27 54 121
27 55 236
27 56 246
27 57 257
27 58 34
27 59 119
27 60 93
28 29 116
28 30 75
28 31 82
28 32 38
28 33 285
28 34 285
28 35 226
28 36 131
28 37 106
28 38 171
28 39 287
28 40 112
28 41 290
28 42 37
28 43 43
28 44 134
28 45 13
28 46 32
28 47 61
28 48 290
28 49 81
28 50 188
28 51 65
28 52 201
28 53 85
28 54 248
28 55 174
28 56 155
28 57 22
28 58 84
28 59 221
28 60 197
29 30 85
29 31 163
29 32 266
29 33 92
29 34 81
29 35 186
29 36 47
29 37 153
29 38 138
29 39 19
29 40 51
29 41 179
29 42 140
29 43 104
29 44 255
29 45 34
29 46 23
29 47 182
29 48 289
29 49 125
29 50 80
29 51 253
29 52 174
29 53 115
29 54 170
29 55 201
29 56 196
29 57 132
29 58 195
29 59 170
29 60 108
30 31 224
30 32 299
30 33 253
30 34 267
30 35 195
30 36 192
30 37 232
30 38 244
30 39 185
30 40 49
30 41 91
30 42 33
30 43 85
30 44 136
30 45 218
30 46 217
30 47 63
30 48 70
30 49 261
30 50 261
30 51 59
30 52 142
30 53 41
30 54 37
30 55 287
30 56 72
30 57 259
30 58 185
30 59 234
30 60 10
31 32 233
31 33 23
31 34 141
31 35 101
31 36 166
31 37 243
31 38 300
31 39 158
31 40 104
31 41 167
31 42 45
31 43 75
31 44 137
31 45 90
31 46 160
31 47 296
31 48 154
31 49 201
31 50 179
31 51 198
31 52 281
31 53 221
31 54 221
31 55 90
31 56 181
31 57 276
31 58 268
31 59 240
31 60 272
32 33 186
32 34 274
32 35 26
32 36 278
32 37 163
32 38 186
32 39 24
32 40 27
32 41 286
32 42 99
32 43 292
32 44 122
32 45 127
32 46 217
32 47 174
32 48 231
32 49 161
32 50 59
32 51 18
32 52 87
32 53 257
32 54 127
32 55 144
32 56 24
32 57 15
32 58 36
32 59 278
32 60 80
33 34 144
33 35 267
33 36 210
33 37 283
33 38 246
33 39 237
33 40 83
33 41 230
33 42 186
33 43 203
33 44 137
33 45 71
33 46 42
33 47 12
33 48 92
33 49 53
33 50 107
33 51 135
33 52 68
33 53 196
33 54 266
33 55 176
33 56 266
33 57 278
33 58 87
33 59 106
33 60 256
34 35 185
34 36 252
34 37 206
34 38 162
34 39 254
34 40 89
34 41 104
34 42 82
34 43 233
34 44 243
34 45 111
34 46 277
34 47 188
34 48 101
34 49 271
34 50 148
34 51 207
34 52 296
34 53 153
34 54 113
34 55 76
34 56 97
34 57 139
34 58 246
34 59 270
34 60 58
35 36 249
35 37 40
35 38 103
35 39 174
35 40 236
35 41 99
35 42 258
35 43 200
35 44 127
35 45 230
35 46 149
35 47 116
35 48 21
35 49 213
35 50 151
35 51 22
35 52 265
35 53 257
35 54 251
35 55 29
35 56 266
35 57 180
35 58 58
35 59 118
35 60 215
36 37 78
36 38 185
36 39 249
36 40 96
36 41 276
36 42 140
36 43 219
36 44 291
36 45 257
36 46 39
36 47 44
36 48 48
36 49 56
36 50 217
36 51 256
36 52 63
36 53 37
36 54 23
36 55 134
36 56 185
36 57 86
36 58 257
36 59 209
36 60 97
37 38 98
37 39 215
37 40 185
37 41 160
37 42 277
37 43 159
37 44 62
37 45 207
37 46 207
37 47 45
37 48 278
37 49 17
37 50 84
37 51 200
37 52 197
37 53 155
37 54 115
37 55 276
37 56 89
37 57 240
37 58 205
37 59 103
37 60 57
38 39 215
38 40 273
38 41 99
38 42 113
38 43 222
38 44 15
38 45 30
38 46 180
38 47 41
38 48 185
38 49 283
38 50 17
38 51 205
38 52 161
38 53 59
38 54 235
38 55 172
38 56 247
38 57 43
38 58 197
38 59 238
38 60 46
39 40 244
39 41 227
39 42 195
39 43 26
39 44 205
39 45 254
39 46 147
39 47 43
39 48 281
39 49 29
39 50 237
39 51 274
39 52 234
39 53 51
39 54 171
39 55 245
39 56 113
39 57 120
39 58 83
39 59 118
39 60 154
40 41 244
40 42 43
40 43 92
40 44 273
40 45 174
40 46 241
40 47 153
40 48 149
40 49 220
40 50 117
40 51 145
40 52 30
40 53 192
40 54 23
40 55 126
40 56 114
40 57 44
40 58 76
40 59 21
40 60 153
41 42 216
41 43 241
41 44 255
41 45 199
41 46 252
41 47 240
41 48 259
41 49 195
41 50 144
41 51 96
41 52 168
41 53 120
41 54 152
41 55 234
41 56 239
41 57 125
41 58 57
41 59 186
41 60 193
42 43 155
42 44 123
42 45 162
42 46 36
42 47 242
42 48 196
42 49 187
42 50 173
42 51 267
42 52 56
42 53 136
42 54 99
42 55 264
42 56 254
42 57 101
42 58 51
42 59 124
42 60 135
43 44 195
43 45 86
43 46 46
43 47 176
43 48 223
43 49 166
43 50 276
43 51 231
43 52 92
43 53 188
43 54 242
43 55 122
43 56 214
43 57 91
43 58 100
43 59 235
43 60 157
44 45 181
44 46 104
44 47 99
44 48 244
44 49 93
44 50 28
44 51 294
44 52 13
44 53 201
44 54 280
44 55 150
44 56 48
44 57 173
44 58 63
44 59 58
44 60 17
45 46 81
45 47 56
45 48 157
45 49 206
45 50 20
45 51 70
45 52 35
45 53 263
45 54 255
45 55 199
45 56 185
45 57 115
45 58 95
45 59 95
45 60 113
46 47 274
46 48 260
46 49 30
46 50 172
46 51 105
46 52 300
46 53 247
46 54 190
46 55 151
46 56 232
46 57 25
46 58 173
46 59 204
46 60 74
47 48 134
47 49 265
47 50 204
47 51 14
47 52 146
47 53 226
47 54 153
47 55 28
47 56 51
47 57 108
47 58 12
47 59 156
47 60 220
48 49 259
48 50 94
48 51 241
48 52 178
48 53 64
48 54 249
48 55 212
48 56 63
48 57 14
48 58 149
48 59 277
48 60 137
49 50 178
49 51 226
49 52 204
49 53 117
49 54 297
49 55 100
49 56 121
49 57 136
49 58 77
49 59 216
49 60 37
50 51 78
50 52 202
50 53 40
50 54 117
50 55 59
50 56 284
50 57 88
50 58 291
50 59 217
50 60 102
51 52 143
51 53 32
51 54 249
51 55 112
51 56 160
51 57 100
51 58 251
51 59 166
51 60 38
52 53 189
52 54 57
52 55 172
52 56 99
52 57 188
52 58 137
52 59 118
52 60 157
53 54 129
53 55 204
53 56 237
53 57 138
53 58 85
53 59 62
53 60 282
54 55 51
54 56 218
54 57 230
54 58 165
54 59 18
54 60 211
55 56 284
55 57 284
55 58 297
55 59 179
55 60 133
56 57 274
56 58 165
56 59 145
56 60 97
57 58 40
57 59 189
57 60 127
58 59 178
58 60 241
59 60 258
